36
95
59
98
51
69
47
16
73
8
66
13
75
92
4
2
11
96
85
77
37
6
55
43
86
39
22
33
38
68
72
44
61
71
89
81
79
26
46
3
21
76
12
32
58
64
62
84
17
99
45
25
65
5
42
90
48
52
14
83
1
74
7
63
88
35
40
54
97
80
57
31
30
93
91
19
94
18
24
29
100
78
53
34
70
82
67
27
41
87
9
10
60
50
49
56
20
15
23
28
36
